* #variable= 27 #constraint= 20
* #binary= 27 #integer= 0
* NOTE: using following variable name mapping
* x1..1 : C101
* x2..2 : C102
* x3..3 : C103
* x4..4 : C104
* x5..5 : C105
* x6..6 : C106
* x7..7 : C107
* x8..8 : C108
* x9..9 : C109
* x10..10 : C110
* x11..11 : C111
* x12..12 : C112
* x13..13 : C113
* x14..14 : C114
* x15..15 : C115
* x16..16 : C116
* x17..17 : C117
* x18..18 : C118
* x19..19 : C119
* x20..20 : C120
* x21..21 : C121
* x22..22 : C122
* x23..23 : C123
* x24..24 : C124
* x25..25 : C125
* x26..26 : C126
* x27..27 : C127
*   Obj. scale       : 1
*   Obj. offset      : 0
* NOTE: new objective = (old objective - offset) * scale
min: +3 x1 +2 x2 +5 x3 +8 x4 +6 x5 +9 x6 +7 x7 +4 x8 +5 x9 +6 x10 +3 x11 +2 x12 +4 x13 +5 x14 +8 x15 +7 x16 +3 x17 +5 x18 +2 x19 +4 x20 +3 x21 +2 x22 +5 x23 +6 x24 +8 x25 +1 x26 +1 x27 ;
-2 x1 -6 x2 -1 x3 -3 x5 -3 x6 -2 x7 -6 x8 -2 x9 -2 x10 -5 x11 -3 x12 -3 x13 -7 x14 -9 x15 -4 x16 -2 x17 -2 x18 -3 x19 -4 x20 -9 x21 -9 x22 -9 x23 -2 x24 -8 x25 -6 x26 -5 x27 >= -65 ;
+6 x1 -5 x2 +8 x3 +3 x4 +1 x6 +3 x7 +8 x8 +9 x9 -3 x10 +8 x11 -6 x12 +3 x13 +8 x14 +6 x15 -7 x16 -6 x17 +2 x18 -3 x19 +7 x20 -4 x21 -5 x22 -5 x23 -5 x24 +3 x25 -3 x26 >= 15 ;
-5 x1 +6 x2 +5 x3 +3 x4 +8 x5 -8 x6 +9 x7 +2 x8 -9 x10 +1 x11 -7 x12 -9 x13 +9 x14 -4 x15 -2 x16 +2 x17 +9 x18 +3 x20 -3 x21 +4 x23 -7 x24 +1 x25 -4 x26 +6 x27 >= 10 ;
+9 x1 +5 x2 -9 x4 +1 x5 -8 x6 +3 x7 -9 x8 -9 x9 -3 x10 +7 x12 -5 x13 -4 x14 +9 x15 +1 x16 +9 x17 -7 x18 +3 x19 +7 x20 -4 x21 -1 x22 +1 x23 -1 x24 -3 x25 >= -32 ;
-8 x1 +7 x2 -4 x3 -5 x4 -9 x5 +1 x6 -7 x7 -1 x8 +3 x9 -2 x10 +3 x12 +5 x13 -9 x14 -7 x15 -2 x16 -5 x17 -4 x18 +7 x19 +9 x20 -3 x21 -2 x22 +6 x23 -8 x24 -6 x25 +8 x26 +9 x27 >= -14 ;
-7 x1 -5 x2 -2 x3 -6 x5 -6 x6 -7 x7 -6 x8 +7 x9 +7 x10 +1 x11 +8 x12 +3 x13 -9 x14 -1 x15 +6 x16 -6 x17 -6 x18 -1 x19 -1 x20 -6 x21 +3 x22 -5 x23 -5 x25 -6 x26 +8 x27 >= -33 ;
+1 x1 -3 x2 -3 x3 -4 x4 -1 x5 -4 x7 +1 x8 +6 x9 -8 x11 -1 x13 +5 x14 +4 x15 +1 x16 +9 x17 +7 x18 -2 x19 -2 x20 -1 x21 +3 x22 -7 x23 -8 x24 +5 x25 +2 x26 +1 x27 >= 5 ;
+1 x1 -2 x2 +6 x3 +9 x4 -7 x6 +9 x7 -9 x8 -6 x9 +4 x10 -5 x11 -3 x12 -1 x13 +3 x14 +9 x15 +1 x16 +6 x17 +8 x18 +9 x19 +9 x20 -8 x21 -5 x22 -5 x24 -8 x25 +3 x26 +1 x27 >= -3 ;
-4 x1 +6 x2 +7 x3 +2 x4 +2 x5 +6 x7 +6 x8 -7 x9 +4 x10 -2 x12 -8 x13 -4 x15 +4 x16 -3 x17 -2 x18 +3 x19 -4 x21 -3 x22 -7 x23 -9 x24 -8 x25 +3 x26 -8 x27 >= -18 ;
+1 x10 +1 x11 +1 x12 +1 x13 -1 x14 -1 x15 +1 x16 -1 x17 -1 x18 -1 x19 -2 x20 -2 x21 -2 x22 +2 x23 -2 x24 +2 x25 +2 x26 -2 x27 >= -10 ;
+1 x1 -3 x2 -3 x3 +4 x4 -5 x5 -5 x6 -7 x7 -8 x8 +8 x9 +1 x12 +2 x13 -4 x14 +6 x15 -6 x16 -7 x17 +8 x18 -8 x19 +1 x21 +2 x22 +4 x23 +7 x24 +7 x25 -7 x26 -8 x27 >= -17 ;
-8 x1 -5 x3 -2 x5 -6 x6 -7 x7 -1 x8 +1 x9 -1 x10 -4 x11 +5 x12 +7 x13 +8 x14 -2 x15 +8 x16 +5 x17 +5 x18 -9 x19 +1 x21 +9 x22 +3 x23 +6 x24 +1 x25 -5 x26 +4 x27 >= 5 ;
+2 x1 +7 x2 +8 x3 -6 x4 +2 x5 +5 x6 +9 x7 +2 x8 -2 x9 +8 x10 -1 x11 +3 x12 -5 x13 -6 x14 +8 x15 -1 x16 -1 x17 +9 x18 -8 x19 -3 x20 +8 x22 +3 x23 +5 x24 +2 x25 +2 x26 -8 x27 >= -4 ;
-7 x1 -9 x2 +7 x3 +5 x4 -1 x5 +5 x6 +5 x7 -4 x8 -9 x9 -3 x10 +4 x11 -7 x14 +7 x15 +9 x16 -9 x18 +3 x19 +9 x21 -9 x23 +6 x24 +4 x26 -9 x27 >= -21 ;
-7 x1 -1 x2 -4 x3 +3 x4 +6 x6 +3 x7 -7 x8 -8 x9 -1 x10 +6 x11 -6 x12 -8 x13 +3 x14 -8 x15 +5 x16 -1 x17 -8 x18 -4 x19 +8 x20 +3 x21 -8 x22 +1 x23 -5 x25 -2 x27 >= -24 ;
-3 x1 -6 x2 -1 x3 +3 x4 +5 x5 -6 x6 +9 x7 -6 x8 -3 x9 +9 x10 +6 x11 +3 x12 +6 x13 +6 x14 -6 x15 -2 x16 +7 x17 +6 x18 +7 x20 +4 x21 +6 x22 -5 x23 +9 x24 -5 x25 -4 x26 -2 x27 >= 6 ;
+3 x1 +1 x2 -6 x3 +6 x4 -1 x5 +2 x6 -3 x8 +3 x9 -3 x10 -6 x11 +1 x12 -6 x14 -6 x15 -8 x16 +2 x17 +4 x18 -1 x19 -6 x22 -1 x23 -1 x24 -9 x25 +7 x26 -1 x27 >= -17 ;
-5 x1 +9 x2 +5 x3 +6 x6 -7 x7 -1 x8 +1 x9 -7 x10 -2 x11 +6 x12 -2 x13 +2 x14 +4 x15 +5 x16 -4 x17 -5 x18 +1 x19 +8 x20 +2 x21 +2 x22 +4 x23 -1 x24 +2 x26 -1 x27 >= 13 ;
+4 x1 -4 x2 +8 x3 +5 x4 +7 x5 +7 x6 +4 x7 -5 x8 +8 x10 -9 x11 -9 x12 -8 x14 +8 x15 +4 x16 +8 x17 -7 x18 -4 x19 +6 x20 -9 x21 -5 x22 +7 x23 -3 x24 +6 x25 +5 x27 >= 30 ;
+6 x1 -8 x2 -2 x3 +8 x5 +7 x6 +6 x7 -9 x9 -4 x10 +8 x11 +3 x13 -3 x14 -4 x16 +6 x17 +2 x18 -3 x19 -5 x20 -3 x21 +4 x22 +9 x23 -9 x24 +4 x25 +5 x26 -1 x27 >= -1 ;
